
Gurobi 6.0.4 (win64) logging started 06/18/15 16:07:37

Read LP format model from file C:\MT\repository\VRPTWMS\instances\mip\freight\N4-C_DV10-C_SV50_F10_1_No_1.lp
Reading time = 0.00 seconds
(null): 113 rows, 81 columns, 399 nonzeros
Optimize a model with 113 rows, 81 columns and 399 nonzeros
Model has 100 quadratic constraints
Coefficient statistics:
  Matrix range    [1e+00, 1e+06]
  Objective range [4e+04, 1e+07]
  Bounds range    [1e+00, 1e+06]
  RHS range       [1e+00, 1e+06]
Presolve removed 15 rows and 7 columns
Presolve time: 0.01s
Presolved: 366 rows, 216 columns, 1512 nonzeros
Variable types: 126 continuous, 90 integer (62 binary)
Found heuristic solution: objective 4.135980e+07

Root relaxation: objective 3.460252e+06, 71 iterations, 0.00 seconds

    Nodes    |    Current Node    |     Objective Bounds      |     Work
 Expl Unexpl |  Obj  Depth IntInf | Incumbent    BestBd   Gap | It/Node Time

     0     0 3460251.69    0   33 4.1360e+07 3460251.69  91.6%     -    0s
H    0     0                    2.109730e+07 3460251.69  83.6%     -    0s
     0     0 1.0695e+07    0   27 2.1097e+07 1.0695e+07  49.3%     -    0s
H    0     0                    2.095030e+07 1.0695e+07  48.9%     -    0s
     0     0 1.0799e+07    0   13 2.0950e+07 1.0799e+07  48.5%     -    0s
     0     0 1.0799e+07    0   13 2.0950e+07 1.0799e+07  48.5%     -    0s
     0     0 1.0799e+07    0   11 2.0950e+07 1.0799e+07  48.5%     -    0s
H    0     0                    2.091030e+07 1.0799e+07  48.4%     -    0s
     0     2 1.0799e+07    0   11 2.0910e+07 1.0799e+07  48.4%     -    0s
*   47     0               9    2.089070e+07 1.0888e+07  47.9%  12.8    0s

Cutting planes:
  Cover: 3
  Implied bound: 13
  Clique: 15
  MIR: 2
  Flow cover: 1

Explored 59 nodes (860 simplex iterations) in 0.05 seconds
Thread count was 2 (of 4 available processors)

Optimal solution found (tolerance 1.00e-04)
Best objective 2.089070000000e+07, best bound 2.089070000000e+07, gap 0.0%
k_c1	80000.0
k_c2	50000.00000000001
k_c3	100000.0
k_c4	100000.0
k_dN	-0.0
kDash_c1	50000.0
kDash_c2	-0.0
kDash_c3	60000.0
kDash_c4	80000.0
o_1	-0.0
o_2	0.0
o_3	-0.0
o_4	0.0
p_1	0.0
p_2	0.0
p_3	0.0
p_4	0.0
phi_c1	88124.99999999997
phi_c2	7566.0
phi_c3	83220.99999999997
phi_c4	90539.99999999997
phi_d0	100000.0
phi_dN	-0.0
pi_c1	-0.0
pi_c2	-0.0
pi_c3	-0.0
pi_c4	-0.0
pi_dN	-0.0
tauD_c1	319025.0
tauD_c2	700000.0
tauD_c3	100000.0
tauD_c4	250000.0
tauD_d0	-0.0
tauD_dN	1000000.0
tauS_c1	0.0
tauS_c2	0.0
tauS_c3	0.0
tauS_c4	0.0
tauS_d0	-0.0
tauS_dN	1000000.0
x_c1_c2	1.0
x_c2_dN	1.0
x_c3_dN	1.0
x_c4_c1	1.0
x_d0_c3	1.0
x_d0_c4	1.0
